20
0 1 2 2 3 4 5 6 7 8 4 5 9 10 11 6 12 9 13 1 12 5 3 6 14 11 1 5 15 3 15 9 16 13 12 5 5 11 17 18 13 17 14 13 4 11 12 4 16 1 1 7 11 10 10 3 15 16 10 6 10 0 2 16 19 12 4 17 15 4 12 18 15 14 14 0 4 7 19 8 6 11 7 18 16 2 1 19 5 11 8 15 14 2 3 18 18 16 15 7 
